output ([(((("\n"++problem_name)++"\n")++"L:")++show(L))++"\n"]++[if problem[i,j]==0 then "*" else show(letters[fix(L[problem[i,j]])]) endif++if j==cols then "\n" else "" endif | i in 1..rows, j in 1..cols, ])++["\n"];
int: rows = 15;
int: cols = 15;
array [1..rows,1..cols] of int: problem = [|1,2,3,4,0,5,6,7,8,0,9,10,11,12,13|14,15,16,17,0,18,19,20,21,0,22,23,24,25,26|27,28,29,30,0,31,32,33,34,0,35,36,37,38,39|40,41,42,43,44,0,45,46,47,48,49,0,50,51,52|0,0,0,53,54,55,0,56,57,58,0,59,60,61,62|63,64,65,0,66,67,68,69,70,71,72,73,0,0,0|74,75,76,77,0,78,79,80,0,81,82,83,84,85,86|87,88,89,90,91,92,93,0,94,95,96,97,98,99,100|101,102,103,104,105,106,0,107,108,109,0,110,111,112,113|0,0,0,114,115,116,117,118,119,120,121,0,122,123,124|125,126,127,128,0,129,130,131,0,132,133,134,0,0,0|135,136,137,0,138,139,140,141,142,0,143,144,145,146,147|148,149,150,151,152,0,153,154,155,156,0,157,158,159,160|161,162,163,164,165,0,166,167,168,169,0,170,171,172,173|174,175,176,177,178,0,179,180,181,182,0,183,184,185,186|];
int: num_letters = 26;
array [1..num_letters] of string: letters = ["a","b","c","d","e","f","g","h","i","j","k","l","m","n","o","p","q","r","s","t","u","v","w","x","y","z"];
int: N = 186;
array [0..N] of int: L;
string: problem_name = "15.08, 15 x 15";
